
List of user-set options:

                                    Name   Value                used
                           compl_inf_tol = 1                     yes
                         constr_viol_tol = 1                     yes
                            dual_inf_tol = 1000                  yes
                           linear_solver = ma97                  yes
                              ma86_small = 1e-30                  no
                                  ma86_u = 0.0001                 no
                              ma97_order = best                  yes
                              ma97_small = 1e-30                 yes
                            ma97_switch1 = at_start              yes
                            ma97_switch2 = od_hd_reuse           yes
                                  ma97_u = 1e-06                 yes
                               ma97_umax = 0.5                   yes
                                max_iter = 1000                  yes
                    max_refinement_steps = 20                    yes
                    min_refinement_steps = 5                     yes
                                 mu_init = 1e-06                 yes
           mu_superlinear_decrease_power = 1.25                  yes
                   nlp_scaling_min_value = 1e-08                 yes
                        option_file_name = Preset_Case:_56_NCP.opt  yes
                             output_file = ./tmp/Preset_Case:_56_NCP.output  yes
                      print_user_options = yes                   yes
        required_infeasibility_reduction = 1                      no
                                     tol = 1e-08                 yes
                   warm_start_bound_frac = 1e-20                 yes
                   warm_start_bound_push = 1e-20                 yes
                   warm_start_init_point = yes                   yes
              warm_start_mult_bound_push = 1e-20                 yes
                warm_start_mult_init_max = 1e+40                 yes
             warm_start_slack_bound_frac = 1e-20                 yes
             warm_start_slack_bound_push = 1e-20                 yes

******************************************************************************
This program contains Ipopt, a library for large-scale nonlinear optimization.
 Ipopt is released as open source code under the Eclipse Public License (EPL).
         For more information visit http://projects.coin-or.org/Ipopt
******************************************************************************

This is Ipopt version 3.12.10, running with linear solver ma97.

Number of nonzeros in equality constraint Jacobian...:   117167
Number of nonzeros in inequality constraint Jacobian.:      213
Number of nonzeros in Lagrangian Hessian.............:    47513

Total number of variables............................:    29977
                     variables with only lower bounds:    11312
                variables with lower and upper bounds:    15135
                     variables with only upper bounds:        0
Total number of equality constraints.................:    29864
Total number of inequality constraints...............:       25
        inequality constraints with only lower bounds:        4
   inequality constraints with lower and upper bounds:        0
        inequality constraints with only upper bounds:       21

iter    objective    inf_pr   inf_du lg(mu)  ||d||  lg(rg) alpha_du alpha_pr  ls
   0 -1.8436840e-01 3.33e-01 2.00e+00  -6.0 0.00e+00    -  0.00e+00 0.00e+00   0
In iteration 0, 10 Slacks too small, adjusting variable bounds
   1 -1.8436840e-01 3.33e-01 4.94e+02  -6.0 1.26e+10    -  4.93e-14 3.77e-19h  1
   2 -1.8436789e-01 3.33e-01 4.94e+02  -6.0 1.41e+02    -  2.29e-08 1.29e-05f  1
   3 -1.8436789e-01 3.33e-01 4.94e+02  -6.0 2.44e+01    -  1.84e-02 6.06e-07h  2
   4 -1.8436650e-01 3.33e-01 4.94e+02  -6.0 1.48e+02    -  3.27e-05 4.32e-05h  1
   5 -1.8436763e-01 3.32e-01 5.06e+02  -6.0 7.13e+01    -  3.89e-02 8.59e-04f  1
   6 -1.8384720e-01 3.11e-01 4.72e+02  -6.0 3.84e+01    -  1.82e-07 6.35e-02h  1
   7r-1.8384720e-01 3.11e-01 9.99e+02  -0.5 0.00e+00    -  0.00e+00 4.25e-07R  2
   8r-1.8384265e-01 3.11e-01 3.69e+03  -0.5 3.62e+03    -  2.97e-06 2.20e-07f  1
   9 -1.8381128e-01 3.10e-01 8.02e+01  -6.0 5.05e+01    -  3.09e-02 5.55e-03h  1
iter    objective    inf_pr   inf_du lg(mu)  ||d||  lg(rg) alpha_du alpha_pr  ls
  10 -1.8378517e-01 3.08e-01 8.48e+01  -6.0 4.77e+01    -  3.41e-02 4.45e-03h  1
  11 -1.8356691e-01 2.81e-01 9.78e+04  -6.0 6.26e+01    -  3.22e-02 8.82e-02H  1
  12 -1.8357950e-01 2.73e-01 1.42e+05  -6.0 5.97e+01    -  3.80e-03 2.76e-02h  1
  13 -1.8357642e-01 2.71e-01 1.35e+05  -6.0 5.97e+01    -  9.81e-03 6.46e-03h  1
  14 -1.8357698e-01 2.71e-01 8.55e+04  -6.0 5.94e+01    -  2.63e-02 3.00e-03h  1
  15 -1.8357504e-01 2.55e-01 1.89e+05  -6.0 5.93e+01    -  3.95e-03 5.94e-02h  1
  16 -1.8352928e-01 2.28e-01 2.91e+05  -6.0 5.80e+01    -  4.86e-02 1.06e-01h  1
  17 -1.8350601e-01 2.13e-01 4.94e+04  -6.0 5.57e+01    -  1.71e-01 6.43e-02h  3
  18 -1.8348961e-01 1.99e-01 6.34e+04  -6.0 5.46e+01    -  5.41e-02 6.58e-02h  3
  19 -1.8348097e-01 1.87e-01 1.29e+05  -6.0 5.40e+01    -  1.92e-01 6.15e-02h  3
iter    objective    inf_pr   inf_du lg(mu)  ||d||  lg(rg) alpha_du alpha_pr  ls
  20 -1.8351088e-01 1.76e-01 2.16e+05  -6.0 5.34e+01    -  1.50e-01 5.85e-02h  3
  21 -1.8358403e-01 1.65e-01 3.25e+05  -6.0 5.28e+01    -  2.11e-01 5.87e-02h  3
  22 -1.8362642e-01 1.61e-01 3.92e+05  -6.0 5.11e+01    -  1.11e-01 2.55e-02h  4
  23 -1.8366008e-01 1.57e-01 4.11e+05  -6.0 4.95e+01    -  5.01e-02 2.31e-02h  4
  24 -1.8368328e-01 1.56e-01 5.93e+05  -6.0 5.02e+01    -  1.79e-01 1.09e-02h  5
  25 -1.8367203e-01 1.54e-01 6.02e+05  -6.0 7.00e+01    -  2.27e-02 1.06e-02h  5
  26 -1.8366809e-01 1.53e-01 6.56e+05  -6.0 7.32e+01    -  5.57e-02 9.53e-03h  5
  27 -1.8321371e-01 2.90e-01 5.12e+05  -6.0 7.95e+01    -  2.17e-02 8.65e-02w  1
  28 -1.8336666e-01 1.33e+00 3.42e+05  -6.0 8.21e+01    -  1.06e-01 1.65e-01w  1
  29 -1.8314466e-01 1.40e+00 4.54e+05  -6.0 9.88e+01    -  1.86e-01 9.27e-02w  1
iter    objective    inf_pr   inf_du lg(mu)  ||d||  lg(rg) alpha_du alpha_pr  ls
  30 -1.8361129e-01 1.51e-01 6.64e+05  -6.0 1.14e+02    -  2.17e-02 1.08e-02h  3
  31 -1.8358021e-01 1.50e-01 6.82e+05  -6.0 8.29e+01    -  2.42e-02 7.67e-03h  4
  32 -1.8351220e-01 1.48e-01 7.83e+05  -6.0 8.58e+01    -  8.76e-02 1.16e-02h  3
  33 -1.8345831e-01 1.47e-01 8.52e+05  -6.0 9.58e+01    -  5.76e-02 6.95e-03h  3
  34 -1.8335261e-01 1.45e-01 8.81e+05  -6.0 1.02e+02    -  3.91e-02 1.13e-02h  2
  35 -1.8329611e-01 1.45e-01 1.06e+06  -6.0 1.06e+02    -  1.33e-01 5.87e-03h  2
  36 -1.8323372e-01 1.44e-01 1.06e+06  -6.0 1.19e+02    -  1.32e-02 5.80e-03h  2
  37 -1.8317406e-01 1.43e-01 1.14e+06  -6.0 1.20e+02    -  7.80e-02 6.04e-03h  2
  38 -1.8309412e-01 1.42e-01 1.20e+06  -6.0 1.29e+02    -  6.89e-02 7.43e-03h  4
  39 -1.8300801e-01 1.41e-01 1.25e+06  -6.0 1.37e+02    -  5.91e-02 7.38e-03h  5
iter    objective    inf_pr   inf_du lg(mu)  ||d||  lg(rg) alpha_du alpha_pr  ls
  40 -1.8094413e-01 9.16e-01 9.18e+05  -6.0 1.44e+02    -  4.92e-02 1.65e-01w  1
  41 -1.7857606e-01 2.08e+00 7.29e+05  -6.0 1.39e+02    -  2.49e-01 2.34e-01w  1
  42 -1.7900792e-01 2.02e+00 7.53e+06  -6.0 3.27e+01  -2.0 2.33e-01 2.85e-02w  1
  43 -1.8287902e-01 1.39e-01 1.28e+06  -6.0 3.30e+01  -2.5 4.92e-02 1.03e-02h  4
  44 -1.8279619e-01 1.38e-01 1.40e+06  -6.0 1.50e+02    -  1.26e-01 6.26e-03h  6
  45 -1.8266105e-01 1.37e-01 1.40e+06  -6.0 1.66e+02    -  2.39e-02 9.07e-03h  6
  46 -1.8251802e-01 1.36e-01 1.52e+06  -6.0 1.69e+02    -  1.34e-01 9.55e-03h  6
  47 -1.8234392e-01 1.34e-01 1.53e+06  -6.0 1.87e+02    -  4.72e-02 1.09e-02h  6
  48 -1.8217124e-01 1.33e-01 1.67e+06  -6.0 1.94e+02    -  1.72e-01 1.07e-02h  6
  49 -1.8199605e-01 1.32e-01 1.71e+06  -6.0 2.18e+02    -  8.08e-02 1.05e-02h  6
iter    objective    inf_pr   inf_du lg(mu)  ||d||  lg(rg) alpha_du alpha_pr  ls
  50 -1.8182901e-01 1.30e-01 1.87e+06  -6.0 2.30e+02    -  2.40e-01 1.01e-02h  6
  51 -1.8164679e-01 1.29e-01 1.90e+06  -6.0 2.60e+02    -  1.25e-01 1.14e-02h  6
  52 -1.8155018e-01 1.28e-01 2.00e+06  -6.0 2.73e+02    -  3.30e-01 6.26e-03h  7
  53 -1.7443025e-01 7.17e+00 1.05e+06  -6.0 2.85e+02    -  2.32e-01 4.76e-01w  1
  54 -1.7521437e-01 6.05e+00 1.58e+06  -6.0 3.31e+01  -3.0 2.21e-02 1.59e-01w  1
  55 -1.7513007e-01 5.98e+00 1.22e+06  -6.0 1.66e+01  -2.5 3.44e-02 1.14e-02w  1
  56 -1.8143893e-01 1.27e-01 1.98e+06  -6.0 2.82e+01  -3.0 2.32e-01 7.45e-03h  6
  57 -1.8132873e-01 1.26e-01 1.89e+06  -6.0 2.80e+02    -  3.90e-01 7.09e-03h  7
  58 -1.8139068e-01 1.24e-01 1.92e+06  -6.0 5.84e+01  -3.5 3.21e-01 1.27e-02h  5
  59 -1.8129835e-01 1.24e-01 1.89e+06  -6.0 7.46e+02    -  8.24e-02 3.43e-03h  7
iter    objective    inf_pr   inf_du lg(mu)  ||d||  lg(rg) alpha_du alpha_pr  ls
  60 -1.8115617e-01 1.23e-01 1.74e+06  -6.0 6.31e+02    -  2.91e-01 5.47e-03h  6
  61 -1.8106402e-01 1.23e-01 1.65e+06  -6.0 7.65e+02    -  9.27e-02 3.41e-03h  6
  62 -1.8089335e-01 1.22e-01 1.21e+06  -6.0 7.79e+02    -  4.13e-01 6.17e-03h  5
  63 -1.8092985e-01 1.21e-01 1.25e+06  -6.0 4.28e+01  -3.1 2.69e-01 9.07e-03h  1
  64 -1.8092019e-01 1.19e-01 1.11e+06  -6.0 3.51e+01  -3.5 1.78e-01 1.73e-02h  5
  65 -1.8086343e-01 1.18e-01 7.46e+05  -6.0 5.51e+01  -4.0 4.00e-01 7.90e-03h  7
  66 -1.8077703e-01 1.17e-01 5.99e+05  -6.0 5.40e+01  -4.5 1.39e-01 7.94e-03h  7
  67 -1.8064613e-01 1.16e-01 3.89e+05  -6.0 1.12e+02  -5.0 1.90e-01 8.00e-03h  7
  68 -1.8064388e-01 1.16e-01 7.14e+05  -6.0 1.10e+02  -3.6 4.50e-01 2.02e-04h  1
  69 -1.8058837e-01 1.16e-01 7.11e+05  -6.0 8.75e+01  -4.1 8.21e-04 4.46e-03h  7
iter    objective    inf_pr   inf_du lg(mu)  ||d||  lg(rg) alpha_du alpha_pr  ls
  70r-1.8058837e-01 1.16e-01 1.00e+03  -0.9 0.00e+00  -2.8 0.00e+00 3.82e-07R  5
  71r-1.8032183e-01 1.14e-01 1.00e+03  -0.9 6.49e+04    -  1.90e-05 2.53e-05f  1
  72 -1.8022704e-01 1.13e-01 3.52e+02  -6.0 5.18e+02    -  1.41e-02 2.43e-03h  4
  73 -1.8014416e-01 1.13e-01 3.51e+02  -6.0 5.22e+02    -  4.40e-03 2.15e-03h  4
  74 -1.7999949e-01 1.13e-01 3.45e+02  -6.0 5.22e+02    -  3.48e-01 3.76e-03h  3
  75 -1.7980146e-01 1.12e-01 3.42e+02  -6.0 9.35e+02    -  8.43e-03 6.49e-03h  3
  76 -1.7970539e-01 1.12e-01 3.47e+02  -6.0 1.00e+03    -  1.45e-01 3.28e-03h  4
  77 -1.7960464e-01 1.11e-01 3.47e+02  -6.0 1.25e+03    -  2.00e-02 3.78e-03h  6
  78 -1.7954848e-01 1.11e-01 3.52e+02  -6.0 1.28e+03    -  9.50e-02 2.12e-03h  7
  79 -1.7945870e-01 1.11e-01 3.52e+02  -6.0 1.38e+03    -  3.08e-02 3.42e-03h  7
iter    objective    inf_pr   inf_du lg(mu)  ||d||  lg(rg) alpha_du alpha_pr  ls
  80 -1.7936788e-01 1.11e-01 3.54e+02  -6.0 1.42e+03    -  8.02e-02 3.47e-03h  7
  81 -1.7928183e-01 1.11e-01 3.55e+02  -6.0 1.52e+03    -  4.60e-02 3.30e-03h  7
  82 -1.7398406e-01 4.90e+00 2.77e+02  -6.0 1.61e+03    -  7.60e-02 2.04e-01w  1
  83 -1.7338210e-01 4.86e+00 1.41e+03  -6.0 1.49e+04    -  9.84e-02 8.23e-03w  1
  84 -1.7278833e-01 4.86e+00 1.75e+04  -6.0 1.66e+03    -  3.78e-01 3.39e-02w  1
  85 -1.7924044e-01 1.10e-01 3.58e+02  -6.0 1.91e+03    -  7.60e-02 1.59e-03h  7
  86 -1.7920067e-01 1.10e-01 3.60e+02  -6.0 1.79e+03    -  6.33e-02 1.53e-03h  8
  87 -1.7916215e-01 1.10e-01 3.62e+02  -6.0 1.93e+03    -  6.75e-02 1.48e-03h  8
  88 -1.7912482e-01 1.10e-01 3.64e+02  -6.0 2.08e+03    -  8.35e-02 1.43e-03h  8
  89 -1.7908870e-01 1.10e-01 3.71e+02  -6.0 2.27e+03    -  6.16e-02 1.37e-03h  8
iter    objective    inf_pr   inf_du lg(mu)  ||d||  lg(rg) alpha_du alpha_pr  ls
  90 -1.7905346e-01 1.10e-01 3.89e+02  -6.0 2.38e+03    -  1.14e-01 1.34e-03h  8
  91 -1.7901945e-01 1.10e-01 3.98e+02  -6.0 2.57e+03    -  5.84e-02 1.29e-03h  8
  92 -1.7898611e-01 1.10e-01 4.23e+02  -6.0 2.60e+03    -  1.55e-01 1.26e-03h  8
  93 -1.7895386e-01 1.10e-01 4.32e+02  -6.0 2.65e+03    -  6.05e-02 1.25e-03h  8
  94 -1.7892182e-01 1.10e-01 5.70e+02  -6.0 2.58e+03    -  1.73e-01 1.26e-03h  8
  95 -1.7474683e-01 2.72e+00 3.61e+02  -6.0 2.36e+03    -  7.45e-02 1.76e-01w  1
  96 -1.7105662e-01 6.29e+00 1.05e+04  -6.0 2.12e+03    -  5.74e-01 2.32e-01w  1
  97 -1.7122948e-01 6.16e+00 7.26e+04  -6.0 3.82e+01  -3.3 4.57e-03 2.02e-02w  1
  98 -1.7888920e-01 1.10e-01 7.68e+02  -6.0 2.40e+01  -3.7 7.45e-02 1.38e-03h  7
  99 -1.7885543e-01 1.09e-01 1.19e+03  -6.0 2.37e+03    -  1.30e-01 1.49e-03h  8
iter    objective    inf_pr   inf_du lg(mu)  ||d||  lg(rg) alpha_du alpha_pr  ls
 100 -1.7883707e-01 1.09e-01 1.69e+03  -6.0 2.66e+03    -  1.20e-01 8.84e-04h  9
 101 -1.7881688e-01 1.09e-01 2.08e+03  -6.0 2.92e+03    -  8.60e-02 1.06e-03h  9
 102 -1.7879534e-01 1.09e-01 3.87e+03  -6.0 3.10e+03    -  3.81e-01 1.21e-03h  9
 103 -1.7878839e-01 1.09e-01 4.09e+03  -6.0 3.92e+03    -  6.09e-02 5.55e-04h 10
 104 -1.7878179e-01 1.09e-01 6.03e+03  -6.0 3.97e+03    -  5.55e-01 5.51e-04h 10
 105 -1.7877895e-01 1.09e-01 6.07e+03  -6.0 4.20e+03    -  5.94e-02 5.46e-04h 10
 106 -1.7877610e-01 1.09e-01 6.35e+03  -6.0 4.05e+03    -  4.45e-01 5.67e-04h 10
 107 -1.7877422e-01 1.09e-01 6.30e+03  -6.0 5.94e+03    -  6.23e-02 7.49e-04h 10
 108 -1.7782305e-01 2.17e+01 3.84e+03  -6.0 6.53e+03    -  3.09e-01 3.99e-01w  1
 109 -1.7802278e-01 1.58e+01 8.03e+04  -6.0 4.73e+01  -4.2 1.26e-04 2.72e-01w  1
iter    objective    inf_pr   inf_du lg(mu)  ||d||  lg(rg) alpha_du alpha_pr  ls
 110 -1.7781907e-01 1.11e+01 5.63e+04  -6.0 3.68e+01  -4.7 3.03e-01 2.99e-01w  1
 111 -1.7877329e-01 1.09e-01 6.05e+03  -6.0 2.00e+01  -5.2 3.09e-01 3.89e-04h 10
 112 -1.7877274e-01 1.09e-01 5.95e+03  -6.0 1.29e+04    -  6.81e-02 4.54e-04h 10
 113 -1.7877221e-01 1.09e-01 5.67e+03  -6.0 1.31e+04    -  1.92e-01 4.25e-04h 10
 114 -1.7877174e-01 1.09e-01 5.55e+03  -6.0 1.34e+04    -  8.02e-02 3.78e-04h 10
 115 -1.7877125e-01 1.09e-01 4.92e+03  -6.0 1.35e+04    -  5.10e-01 3.86e-04h 10
 116 -1.7877135e-01 1.09e-01 5.03e+03  -6.0 1.29e+04    -  6.46e-02 1.17e-04h 12
 117 -1.7877151e-01 1.09e-01 5.75e+03  -6.0 1.28e+04    -  4.55e-01 2.06e-04h 11
 118 -1.7873428e-01 1.08e-01 5.63e+03  -6.0 6.53e+01  -5.6 6.60e-02 6.64e-03h  7
 119 -1.7867591e-01 1.07e-01 5.30e+03  -6.0 6.79e+01  -6.1 2.02e-01 8.44e-03h  7
iter    objective    inf_pr   inf_du lg(mu)  ||d||  lg(rg) alpha_du alpha_pr  ls
 120 -1.7860181e-01 1.06e-01 5.13e+03  -6.0 8.91e+01  -6.6 1.05e-01 8.09e-03h  7
 121 -1.7225864e-01 1.14e+01 2.73e+03  -6.0 1.89e+02  -7.1 2.47e-01 5.31e-01w  1
 122 -1.7155442e-01 1.04e+01 1.57e+04  -6.0 8.43e+02  -7.6 3.33e-02 1.66e-01w  1
 123 -1.7329163e-01 1.17e+01 1.55e+04  -6.0 4.65e+03  -8.0 1.04e-01 6.67e-02w  1
 124 -1.7850270e-01 1.06e-01 4.81e+03  -6.0 4.28e+02  -7.6 2.47e-01 8.30e-03h  6
 125 -1.7845969e-01 1.05e-01 4.85e+03  -6.0 1.15e+03  -8.1 1.28e-01 2.56e-03h  7
 126 -1.7843115e-01 1.05e-01 5.22e+03  -6.0 2.29e+03  -8.6 2.47e-01 1.71e-03h  8
 127 -1.7842118e-01 1.05e-01 5.49e+03  -6.0 3.54e+03  -9.0 1.42e-01 8.74e-04h  8
 128 -1.7839655e-01 1.05e-01 6.50e+03  -6.0 2.11e+03  -8.6 6.83e-01 1.70e-03h  8
 129 -1.7839219e-01 1.05e-01 6.62e+03  -6.0 4.54e+03  -9.1 9.82e-02 1.44e-03h  8
iter    objective    inf_pr   inf_du lg(mu)  ||d||  lg(rg) alpha_du alpha_pr  ls
 130 -1.7836604e-01 1.05e-01 7.49e+03  -6.0 2.06e+03  -8.7 7.53e-01 2.40e-03h  8
 131 -1.7836773e-01 1.05e-01 7.49e+03  -6.0 5.94e+03  -9.1 1.30e-02 7.42e-04h  9
 132 -1.7835480e-01 1.05e-01 7.53e+03  -6.0 2.36e+03  -8.7 6.19e-02 9.56e-04h  9
 133 -1.7835452e-01 1.05e-01 7.54e+03  -6.0 1.21e+04  -9.2 5.11e-02 2.04e-05h 13
 134 -1.7456507e-01 1.23e+01 2.83e+03  -6.0 2.44e+03  -8.8 3.70e-01 5.96e-01w  1
 135 -1.7501634e-01 8.90e+00 2.88e+03  -6.0 5.00e+01  -6.5 9.64e-02 2.74e-01w  1
 136 -1.7546263e-01 6.86e+00 1.56e+03  -6.0 1.89e+02  -7.0 3.89e-01 2.92e-01w  1
 137 -1.7833972e-01 1.04e-01 7.85e+03  -6.0 6.09e+02  -7.5 3.70e-01 2.33e-03h  8
 138 -1.7828115e-01 1.04e-01 7.55e+03  -6.0 4.85e+02  -8.0 3.16e-01 4.95e-03h  8
 139 -1.7822649e-01 1.04e-01 7.57e+03  -6.0 1.28e+03  -8.4 1.54e-01 5.08e-03h  8
iter    objective    inf_pr   inf_du lg(mu)  ||d||  lg(rg) alpha_du alpha_pr  ls
 140 -1.7822366e-01 1.04e-01 7.71e+03  -6.0 4.14e+03  -8.9 2.10e-01 2.34e-03h  8
 141 -1.7819631e-01 1.03e-01 7.78e+03  -6.0 1.39e+03  -8.5 2.33e-01 2.73e-03h  9
 142 -1.7819800e-01 1.04e-01 7.82e+03  -6.0 4.90e+03  -9.0 1.11e-01 1.62e-03h  9
 143 -1.7817171e-01 1.03e-01 8.14e+03  -6.0 1.52e+03  -8.5 7.88e-01 2.85e-03h  9
 144 -1.7817632e-01 1.03e-01 8.12e+03  -6.0 7.85e+03  -9.0 5.15e-02 6.32e-04h  9
 145 -1.7815100e-01 1.03e-01 8.46e+03  -6.0 1.71e+03  -8.6 1.00e+00 3.04e-03h  9
 146 -1.7808508e-01 1.03e-01 8.23e+03  -6.0 5.58e+02  -8.2 2.54e-01 5.77e-03h  8
 147 -1.7278243e-01 1.58e+01 2.59e+03  -6.0 1.97e+03  -8.6 3.51e-01 6.65e-01w  1
 148 -1.7648125e-01 1.50e+01 2.76e+03  -6.0 1.12e+04  -7.3 1.47e-02 5.45e-02w  1
 149 -1.7750615e-01 1.26e+01 2.38e+03  -6.0 1.33e+02  -6.9 1.59e-01 1.75e-01w  1
iter    objective    inf_pr   inf_du lg(mu)  ||d||  lg(rg) alpha_du alpha_pr  ls
 150 -1.7806437e-01 1.03e-01 8.31e+03  -6.0 6.59e+02  -7.4 3.51e-01 2.60e-03h  8
 151 -1.7800574e-01 1.02e-01 7.45e+03  -6.0 2.45e+02  -7.8 5.89e-01 5.27e-03h  8
 152 -1.7793640e-01 1.02e-01 7.41e+03  -6.0 7.90e+02  -8.3 1.70e-01 5.75e-03h  7
 153 -1.7793028e-01 1.02e-01 7.55e+03  -6.0 3.50e+03  -8.8 2.12e-01 1.94e-03h  7
 154 -1.7787236e-01 1.02e-01 7.56e+03  -6.0 8.66e+02  -8.4 3.99e-01 5.42e-03h  7
 155 -1.7787431e-01 1.02e-01 7.63e+03  -6.0 4.38e+03  -8.9 1.15e-01 1.10e-03h  8
 156 -1.7781907e-01 1.02e-01 7.81e+03  -6.0 9.61e+02  -8.4 1.00e+00 5.61e-03h  7
 157 -1.8420653e-01 1.23e+01 3.55e+04  -6.0 7.02e+03  -8.9 8.87e-02 2.49e-01H  1
 158 -1.8649938e-01 1.13e+01 3.28e+04  -6.0 5.10e+02  -7.6 1.45e-01 7.63e-02h  1
 159 -1.9075553e-01 1.03e+01 2.96e+04  -6.0 2.13e+03  -8.1 2.96e-01 9.66e-02h  1
iter    objective    inf_pr   inf_du lg(mu)  ||d||  lg(rg) alpha_du alpha_pr  ls
 160 -1.9210045e-01 9.57e+00 2.76e+04  -6.0 6.45e+02  -7.6 6.32e-01 6.77e-02h  1
 161 -1.9923232e-01 6.10e+00 9.76e+03  -6.0 1.78e+02  -7.2 4.24e-01 6.46e-01h  1
 162 -1.9962254e-01 6.21e+00 8.47e+03  -6.0 6.05e+01  -6.8 5.30e-01 1.33e-01h  1
 163 -2.0050013e-01 7.94e+00 6.49e+03  -6.0 2.05e+02  -7.2 4.22e-01 2.33e-01h  1
 164 -2.0372268e-01 7.60e+00 4.19e+03  -6.0 7.29e+02  -7.7 1.78e-01 3.55e-01h  1
 165 -2.0368867e-01 7.53e+00 4.15e+03  -6.0 3.25e+02  -7.3 8.33e-04 8.44e-03h  1
 166 -2.0370867e-01 7.53e+00 4.15e+03  -6.0 2.05e+04  -7.8 1.25e-07 6.02e-05f  1
 167 -2.0370190e-01 7.53e+00 4.15e+03  -6.0 1.11e+04  -7.4 4.88e-06 2.90e-05h  1
 168 -2.0370860e-01 7.53e+00 4.15e+03  -6.0 1.49e+04  -7.8 3.55e-07 2.89e-05f  1
 169 -2.0370774e-01 7.53e+00 4.15e+03  -6.0 4.12e+02  -7.4 1.27e-04 1.48e-04h  1
iter    objective    inf_pr   inf_du lg(mu)  ||d||  lg(rg) alpha_du alpha_pr  ls
 170 -2.0370874e-01 7.53e+00 4.15e+03  -6.0 3.12e+03  -7.9 1.30e-05 1.77e-05h  1
 171 -2.0370886e-01 7.53e+00 4.15e+03  -6.0 1.91e+02  -7.5 1.03e-03 6.69e-05f  1
 172 -2.0400810e-01 7.22e+00 3.97e+03  -6.0 2.80e+02  -7.9 1.06e-01 4.21e-02f  1
 173 -2.1045066e-01 4.62e+00 2.36e+03  -6.0 1.32e+03  -7.5 2.19e-01 4.06e-01h  1
 174 -2.1044844e-01 4.61e+00 2.35e+03  -6.0 3.43e+02  -7.1 1.07e-01 2.41e-03h  1
 175 -2.1248186e-01 4.05e+00 2.05e+03  -6.0 2.04e+02  -7.6 3.97e-01 1.27e-01f  1
 176 -2.1321937e-01 3.73e+00 1.89e+03  -6.0 5.85e+02  -8.0 1.09e-01 7.89e-02h  1
 177 -2.2129779e-01 1.22e+01 1.37e+03  -6.0 1.28e+03  -8.5 7.66e-02 2.75e-01h  1
 178 -2.2125958e-01 1.17e+01 1.31e+03  -6.0 1.73e+02  -6.3 6.28e-02 4.29e-02h  1
 179 -2.2128562e-01 1.13e+01 1.27e+03  -6.0 2.63e+01  -4.0 1.82e-02 2.73e-02h  1
iter    objective    inf_pr   inf_du lg(mu)  ||d||  lg(rg) alpha_du alpha_pr  ls
 180 -2.2143268e-01 1.03e+01 1.16e+03  -6.0 5.83e+00  -4.5 1.92e-01 9.23e-02h  1
 181 -2.2151030e-01 9.32e+00 1.04e+03  -6.0 5.60e+00  -4.1 5.24e-02 9.74e-02h  1
 182 -2.2164421e-01 8.40e+00 9.38e+02  -6.0 1.07e+01  -4.6 1.58e-03 1.01e-01h  1
 183 -2.2179708e-01 7.66e+00 8.50e+02  -6.0 2.32e+01  -5.1 4.40e-02 9.42e-02h  1
 184 -2.2193896e-01 6.70e+00 7.41e+02  -6.0 9.54e+00  -4.6 1.75e-01 1.28e-01h  1
 185 -2.2198359e-01 6.63e+00 7.33e+02  -6.0 9.34e+01  -5.1 2.02e-02 1.16e-02h  1
 186 -2.2204973e-01 6.53e+00 7.20e+02  -6.0 1.98e+01  -4.7 1.58e-03 1.73e-02h  1
 187 -2.2236264e-01 6.34e+00 6.71e+02  -6.0 2.36e+01  -5.2 3.24e-02 6.88e-02h  1
 188 -2.2241820e-01 6.27e+00 6.62e+02  -6.0 2.87e+01  -5.6 1.37e-01 1.30e-02h  1
 189 -2.2253438e-01 6.13e+00 6.47e+02  -6.0 7.38e+01  -5.2 8.45e-02 2.29e-02h  1
iter    objective    inf_pr   inf_du lg(mu)  ||d||  lg(rg) alpha_du alpha_pr  ls
 190 -2.2296213e-01 5.84e+00 6.12e+02  -6.0 8.18e+01  -5.7 4.19e-02 5.40e-02h  1
 191 -2.2307939e-01 5.75e+00 6.02e+02  -6.0 5.94e+01  -6.2 5.86e-04 1.59e-02h  1
 192 -2.2308585e-01 5.74e+00 6.01e+02  -6.0 6.79e+01  -4.8 6.00e-02 1.26e-03h  1
 193 -2.2309386e-01 5.73e+00 6.00e+02  -6.0 1.15e+02  -5.3 3.26e-02 1.76e-03h  1
 194 -2.2318706e-01 5.66e+00 5.92e+02  -6.0 5.90e+01  -5.8 2.14e-01 1.38e-02h  1
 195 -2.2338135e-01 5.56e+00 5.82e+02  -6.0 6.69e+01  -6.3 2.78e-01 1.73e-02h  1
 196 -2.2442399e-01 5.12e+00 5.26e+02  -6.0 4.14e+02  -6.7 5.93e-01 9.54e-02h  1
 197 -2.2542517e-01 4.74e+00 4.82e+02  -6.0 4.40e+02  -7.2 1.94e-01 8.42e-02h  1
 198 -2.2579559e-01 4.64e+00 4.71e+02  -6.0 5.05e+02  -7.7 1.52e-02 2.30e-02h  1
 199 -2.2579559e-01 4.64e+00 4.71e+02  -6.0 1.05e+02  -4.6 9.42e-07 2.42e-06h  2
iter    objective    inf_pr   inf_du lg(mu)  ||d||  lg(rg) alpha_du alpha_pr  ls
 200 -2.2579562e-01 4.64e+00 4.71e+02  -6.0 4.01e+01  -3.2 8.23e-06 1.09e-05h  1
 201 -2.2579677e-01 4.63e+00 4.71e+02  -6.0 3.96e+01  -3.7 6.97e-05 3.82e-04h  1
 202 -2.2579702e-01 4.63e+00 4.71e+02  -6.0 4.45e+01  -3.3 1.49e-05 4.66e-05h  1
 203 -2.2581481e-01 4.62e+00 4.69e+02  -6.0 6.19e+01  -3.8 1.76e-04 2.92e-03f  1
 204 -2.2581552e-01 4.62e+00 4.69e+02  -6.0 1.01e+02  -4.2 1.68e-03 8.95e-05h  1
 205 -2.2587789e-01 4.57e+00 4.64e+02  -6.0 1.32e+02  -4.7 7.96e-02 1.13e-02h  1
 206 -2.2624758e-01 4.31e+00 3.60e+03  -6.0 2.23e+02  -5.2 1.86e-06 6.19e-02f  1
 207 -2.2652066e-01 4.17e+00 3.48e+03  -6.0 3.29e+02  -5.7 8.08e-02 3.34e-02f  1
 208 -2.2653017e-01 4.16e+00 3.48e+03  -6.0 3.38e+02  -6.1 7.37e-03 8.35e-04h  1
 209 -2.2653517e-01 4.16e+00 3.48e+03  -6.0 5.33e+02  -6.6 1.17e-02 1.29e-03h  1
iter    objective    inf_pr   inf_du lg(mu)  ||d||  lg(rg) alpha_du alpha_pr  ls
 210 -2.2692474e-01 3.82e+00 1.87e+04  -6.0 4.86e+02  -7.1 1.56e-03 8.99e-02f  1
 211 -2.2935640e-01 3.12e+00 2.73e+05  -6.0 3.33e+02  -6.7 1.19e-03 2.45e-01h  1
 212 -2.2935638e-01 3.12e+00 2.73e+05  -6.0 3.30e+00   1.2 4.40e-06 5.18e-05h  1
 213 -2.2935623e-01 3.12e+00 2.72e+05  -6.0 3.19e+00   0.7 8.16e-05 3.91e-04h  1
 214r-2.2935623e-01 3.12e+00 9.99e+02   0.0 0.00e+00   0.2 0.00e+00 2.63e-07R  2
 215r-2.2934576e-01 3.12e+00 5.12e+03   0.0 6.48e+04    -  5.99e-07 1.28e-07f  1
 216 -2.2934760e-01 3.11e+00 3.87e+02  -6.0 3.89e+02    -  5.22e-03 6.94e-04h  1
 217 -2.2936483e-01 2.90e+00 1.46e+02  -6.0 1.83e+01    -  1.74e-03 7.04e-02h  1
 218 -2.2939220e-01 2.38e+00 7.71e+02  -6.0 1.84e+01    -  9.08e-02 1.77e-01h  1
 219 -2.2944728e-01 6.10e-01 5.17e+03  -6.0 1.60e+01    -  2.30e-01 7.43e-01h  1
iter    objective    inf_pr   inf_du lg(mu)  ||d||  lg(rg) alpha_du alpha_pr  ls
 220 -2.2939713e-01 1.39e-03 8.23e+01  -6.0 4.20e+00    -  9.53e-01 1.00e+00h  1
 221 -2.2946058e-01 1.07e-03 1.65e+03  -6.0 1.48e+00    -  5.38e-01 2.31e-01h  1
 222 -2.2950818e-01 4.74e-05 1.68e+03  -6.0 1.66e+00    -  4.89e-01 1.00e+00h  1
 223 -2.2967196e-01 7.79e-04 2.28e+02  -6.0 3.10e+00    -  8.18e-01 1.00e+00h  1
 224 -2.3020711e-01 1.94e-02 1.11e+02  -6.0 1.75e+01    -  7.57e-01 1.00e+00h  1
 225 -2.3114952e-01 9.60e-02 2.81e+01  -6.0 7.36e+01    -  8.03e-01 7.62e-01h  1
 226 -2.3597024e-01 2.06e+00 2.29e+02  -6.0 3.20e+02    -  5.28e-01 1.00e+00f  1
 227 -2.3794108e-01 2.85e+00 1.48e+02  -6.0 4.18e+02    -  4.41e-01 3.21e-01h  1
 228 -2.3970797e-01 2.70e+00 1.08e+02  -6.0 5.77e+02    -  4.28e-01 2.60e-01h  1
 229 -2.4032916e-01 2.72e+00 9.65e+01  -6.0 6.48e+02    -  5.09e-01 9.00e-02h  1
iter    objective    inf_pr   inf_du lg(mu)  ||d||  lg(rg) alpha_du alpha_pr  ls
 230 -2.4095869e-01 2.65e+00 8.24e+01  -6.0 2.45e+03    -  1.38e-01 1.44e-01h  1
 231 -2.4245126e-01 5.49e+00 1.12e+02  -6.0 1.31e+03    -  3.07e-01 3.23e-01h  1
 232 -2.4243802e-01 5.18e+00 1.65e+02  -6.0 7.47e-01  -0.3 5.19e-05 5.70e-02h  1
 233 -2.4243068e-01 5.00e+00 8.90e+01  -6.0 7.05e-01  -0.7 6.68e-02 3.46e-02h  1
 234 -2.4242197e-01 4.78e+00 1.66e+02  -6.0 6.75e-01  -1.2 9.07e-02 4.38e-02h  1
 235 -2.4240395e-01 4.45e+00 1.98e+02  -6.0 6.43e-01  -1.7 8.30e-02 6.90e-02h  1
 236 -2.4234640e-01 3.53e+00 7.09e+02  -6.0 5.94e-01  -2.2 4.26e-01 2.06e-01h  1
 237 -2.4226786e-01 2.10e+00 4.38e+02  -6.0 4.59e-01  -2.6 4.31e-01 4.05e-01h  1
 238 -2.4225580e-01 1.26e+00 3.56e+02  -6.0 2.63e-01  -3.1 9.02e-01 4.01e-01h  1
 239 -2.4230045e-01 1.01e-03 2.06e+01  -6.0 2.16e-01  -3.6 6.87e-01 1.00e+00h  1
iter    objective    inf_pr   inf_du lg(mu)  ||d||  lg(rg) alpha_du alpha_pr  ls
 240 -2.4231341e-01 9.91e-04 2.00e+01  -6.0 9.14e-01  -4.1 6.41e-01 2.96e-02h  1
 241 -2.4235931e-01 4.68e-04 1.37e+01  -6.0 5.35e-01  -4.6 1.00e+00 3.21e-01f  1
 242 -2.4239444e-01 1.71e-03 1.02e+01  -6.0 9.72e-01  -5.0 1.00e+00 2.56e-01f  1
 243 -2.4264142e-01 2.21e-01 2.61e+00  -6.0 4.45e+00  -5.5 1.00e+00 1.00e+00f  1
 244 -2.4329307e-01 1.86e+00 2.47e+01  -6.0 1.24e+01  -6.0 1.00e+00 1.00e+00h  1
 245 -2.4407133e-01 3.03e+00 4.92e+01  -6.0 2.10e+01  -6.5 1.00e+00 7.42e-01h  1
 246 -2.4427664e-01 5.59e-01 3.79e+00  -6.0 9.96e+00  -6.9 1.00e+00 1.00e+00h  1
 247 -2.4450692e-01 3.79e-02 5.48e+00  -6.0 2.70e+01  -7.4 1.00e+00 4.76e-01h  1
 248 -2.4480994e-01 8.69e-02 1.23e+00  -6.0 7.24e+01  -7.9 1.00e+00 9.05e-01f  1
 249 -2.4528462e-01 8.89e-01 1.68e+00  -6.0 2.10e+02  -8.4 8.95e-01 1.00e+00f  1
iter    objective    inf_pr   inf_du lg(mu)  ||d||  lg(rg) alpha_du alpha_pr  ls
 250 -2.4575332e-01 2.44e+00 1.41e+01  -6.0 7.58e+02  -8.8 2.95e-01 4.10e-01h  1
 251 -2.4707807e-01 1.98e+01 2.00e+01  -6.0 1.84e+03  -9.3 3.04e-01 5.29e-01h  1
 252 -2.4723965e-01 1.82e+01 9.80e+01  -6.0 5.56e+03  -9.8 9.44e-02 8.29e-02h  1
 253 -2.4819102e-01 7.37e+00 5.28e+02  -6.0 1.09e+03  -9.4 2.02e-01 7.25e-01h  1
 254 -2.4835321e-01 5.52e+00 4.05e+02  -6.0 1.03e+03  -9.9 2.47e-01 2.57e-01h  1
 255 -2.4850789e-01 1.05e+01 4.04e+02  -6.0 6.70e+02  -9.4 5.99e-02 2.48e-01h  1
 256 -2.4866639e-01 9.48e+00 2.20e+02  -6.0 1.55e+03  -9.9 4.44e-01 1.33e-01h  1
 257 -2.4865532e-01 7.37e+00 1.32e+02  -6.0 6.88e+02  -9.5 6.89e-02 1.00e+00h  1
 258 -2.4876607e-01 5.04e+00 1.00e+02  -6.0 3.05e+02  -9.1 1.64e-01 3.41e-01h  1
 259 -2.4911848e-01 9.47e+00 5.90e+01  -6.0 1.35e+03  -9.5 3.61e-01 4.85e-01h  1
iter    objective    inf_pr   inf_du lg(mu)  ||d||  lg(rg) alpha_du alpha_pr  ls
 260 -2.4923629e-01 7.17e+00 8.89e+01  -6.0 5.03e+02  -9.1 5.75e-01 2.79e-01h  1
 261 -2.4932693e-01 1.28e+01 6.69e+01  -6.0 6.35e+03  -9.6 6.19e-02 9.70e-02h  1
 262 -2.4965053e-01 8.43e+00 1.36e+02  -6.0 7.26e+02  -9.2 4.21e-01 6.46e-01h  1
 263 -2.5017283e-01 7.28e+00 5.06e+02  -6.0 1.79e+03  -9.6 6.63e-02 2.51e-01h  1
 264 -2.5155169e-01 8.33e+00 1.28e+03  -6.0 3.85e+03 -10.1 2.11e-02 3.76e-01h  1
 265 -2.5218851e-01 1.05e+01 1.21e+03  -6.0 1.16e+04  -9.7 3.53e-02 2.89e-02h  1
 266 -2.5248549e-01 1.12e+01 3.38e+02  -6.0 4.20e+03 -10.2 2.04e-01 1.23e-01h  1
 267 -2.5341479e-01 2.39e+01 8.39e+02  -6.0 3.45e+04    -  2.02e-03 2.23e-02h  1
 268 -2.5506683e-01 2.74e+01 4.51e+03  -6.0 2.15e+03    -  1.94e-02 3.66e-01h  1
 269 -2.5542544e-01 2.50e+01 2.60e+03  -6.0 4.24e+03    -  1.61e-01 1.16e-01h  1
iter    objective    inf_pr   inf_du lg(mu)  ||d||  lg(rg) alpha_du alpha_pr  ls
 270 -2.5543411e-01 2.50e+01 1.95e+03  -6.0 2.73e+04    -  8.39e-03 1.47e-04h  1
 271 -2.5608618e-01 1.98e+01 6.90e+02  -6.0 1.69e+03    -  2.72e-01 2.18e-01f  1
 272 -2.5711252e-01 1.44e+01 2.37e+06  -6.0 1.75e+03    -  2.30e-03 2.73e-01h  1
 273 -2.5780225e-01 1.02e+01 1.68e+06  -6.0 2.43e+03    -  3.46e-01 2.93e-01h  1
 274 -2.5852596e-01 5.84e+00 9.59e+05  -6.0 1.69e+03    -  1.15e-01 4.28e-01h  1
 275 -2.5884587e-01 4.33e+00 7.10e+05  -6.0 8.61e+02    -  1.01e-01 2.59e-01h  1
 276 -2.5903312e-01 3.63e+00 5.96e+05  -6.0 6.30e+02    -  6.14e-01 1.61e-01h  1
 277 -2.5971984e-01 1.11e+00 1.18e+05  -6.0 2.99e+02    -  2.94e-01 8.01e-01h  1
 278 -2.6003918e-01 8.94e-01 8.69e+04  -6.0 1.87e+02  -9.7 3.68e-01 2.62e-01h  1
 279 -2.6012983e-01 8.68e-01 8.30e+06  -6.0 1.63e+03 -10.2 3.58e-04 2.92e-02h  1
iter    objective    inf_pr   inf_du lg(mu)  ||d||  lg(rg) alpha_du alpha_pr  ls
 280 -2.6026879e-01 2.20e-01 4.18e+05  -6.0 1.15e+02  -9.8 3.56e-02 9.48e-01f  1
 281 -2.6027846e-01 4.88e-01 3.75e+05  -6.0 1.23e+03 -10.3 1.00e+00 1.05e-01h  2
 282 -2.6032401e-01 2.79e+00 1.87e+05  -6.0 2.04e+03 -10.7 4.69e-01 5.00e-01h  2
 283 -2.6032739e-01 2.78e+00 1.87e+05  -6.0 7.79e+03    -  1.94e-01 4.34e-03h  5
 284 -2.6036107e-01 2.99e+00 1.68e+05  -6.0 2.32e+03    -  7.98e-01 9.95e-02h  2
 285 -2.6041042e-01 2.38e+00 1.16e+05  -6.0 1.36e+02  -9.4 1.00e+00 3.09e-01h  1
 286 -2.6042814e-01 2.17e+00 1.05e+05  -6.0 2.90e+03    -  1.63e-01 9.51e-02h  1
 287 -2.6060986e-01 6.65e+00 2.58e+04  -6.0 8.66e+02    -  8.96e-01 7.56e-01h  1
 288 -2.6084090e-01 1.44e+00 5.73e+03  -6.0 2.17e+02  -9.9 4.84e-01 7.83e-01h  1
 289 -2.6070866e-01 1.03e+00 2.98e+01  -6.0 2.45e+02 -10.4 9.98e-01 1.00e+00h  1
iter    objective    inf_pr   inf_du lg(mu)  ||d||  lg(rg) alpha_du alpha_pr  ls
 290 -2.6091232e-01 6.84e-01 1.70e+01  -6.0 2.07e+02  -9.9 4.45e-01 4.27e-01h  1
 291 -2.6102027e-01 5.72e-01 3.69e+00  -6.0 1.43e+02  -9.5 1.00e+00 1.00e+00h  1
 292 -2.6109268e-01 5.51e-01 3.51e+01  -6.0 3.10e+02 -10.0 3.89e-01 5.62e-01h  1
 293 -2.6124309e-01 2.81e+01 3.11e+02  -6.0 1.22e+04 -10.5 2.74e-01 1.00e+00H  1
 294 -2.6124286e-01 2.73e+01 2.12e+02  -6.0 2.37e+03    -  9.04e-02 3.03e-02h  1
 295 -2.6124698e-01 1.97e+01 3.51e+02  -6.0 5.58e+02    -  1.52e-01 2.94e-01h  1
 296 -2.6140386e-01 7.69e-01 1.25e+03  -6.0 1.69e+02    -  3.63e-01 1.00e+00h  1
 297 -2.6145937e-01 6.39e-01 6.73e+02  -6.0 1.86e+02    -  5.38e-01 2.32e-01h  1
 298 -2.6163021e-01 7.97e-01 2.25e+03  -6.0 1.74e+02    -  5.07e-01 1.00e+00h  1
 299 -2.6166594e-01 6.94e-01 1.94e+03  -6.0 2.23e+02    -  3.78e-01 4.27e-01h  1
iter    objective    inf_pr   inf_du lg(mu)  ||d||  lg(rg) alpha_du alpha_pr  ls
 300 -2.6166529e-01 6.51e-01 1.85e+03  -6.0 3.28e+02    -  7.08e-01 1.29e-01h  1
 301 -2.6173500e-01 3.98e-01 9.16e+06  -6.0 1.24e+02    -  1.22e-03 1.00e+00h  1
 302 -2.6169998e-01 3.13e-01 2.56e+04  -6.0 7.01e+01  -8.2 2.22e-01 1.00e+00h  1
 303 -2.6159837e-01 2.35e-01 4.90e-01  -6.0 1.89e+02    -  1.00e+00 1.00e+00h  1
 304 -2.6158545e-01 6.88e-03 2.76e-02  -6.0 1.51e+01    -  1.00e+00 1.00e+00h  1
 305 -2.6158468e-01 7.54e-07 9.83e-06  -6.0 1.50e-01    -  1.00e+00 1.00e+00h  1
 306 -2.6213726e-01 1.90e+00 3.42e+01  -7.5 3.03e+03    -  3.72e-01 2.52e-01h  1
 307 -2.6228064e-01 1.93e+00 5.65e+01  -7.5 2.86e+03    -  2.36e-01 9.35e-02h  1
 308 -2.6245162e-01 1.42e+00 7.94e+01  -7.5 1.66e+02  -8.7 5.41e-01 2.64e-01h  1
 309 -2.6300607e-01 7.61e+00 2.12e+01  -7.5 2.57e+03    -  2.93e-01 5.38e-01h  1
iter    objective    inf_pr   inf_du lg(mu)  ||d||  lg(rg) alpha_du alpha_pr  ls
 310 -2.6307972e-01 6.35e+00 4.14e+01  -7.5 1.32e+03    -  7.53e-01 1.92e-01h  1
 311 -2.6329636e-01 3.14e+00 8.76e+00  -7.5 1.29e+03    -  5.30e-01 8.76e-01h  1
 312 -2.6329011e-01 1.75e+00 5.76e+00  -7.5 6.51e+02    -  2.50e-01 5.00e-01h  1
 313 -2.6329105e-01 4.50e-01 1.67e-01  -7.5 4.36e+02    -  1.00e+00 1.00e+00h  1
 314 -2.6329412e-01 1.41e-01 1.52e-01  -7.5 2.10e+02    -  1.00e+00 1.00e+00h  1
 315 -2.6329863e-01 1.54e-01 2.89e-01  -7.5 2.16e+02    -  1.00e+00 1.00e+00h  1
 316 -2.6330171e-01 8.99e-02 4.72e-01  -7.5 7.59e+01  -9.2 5.20e-01 5.42e-01h  1
 317 -2.6330533e-01 1.44e-01 2.55e-01  -7.5 1.54e+02    -  1.00e+00 5.29e-01f  1
 318 -2.6331080e-01 2.46e-01 3.91e-01  -7.5 9.94e+02    -  1.97e-01 1.31e-01h  1
 319 -2.6331754e-01 1.39e-01 6.31e-02  -7.5 1.89e+02    -  1.00e+00 1.00e+00h  1
iter    objective    inf_pr   inf_du lg(mu)  ||d||  lg(rg) alpha_du alpha_pr  ls
 320 -2.6331723e-01 2.67e-03 3.10e-03  -7.5 1.18e+01    -  1.00e+00 1.00e+00h  1
 321 -2.6331753e-01 1.93e-04 1.57e-03  -7.5 2.23e+00    -  1.00e+00 1.00e+00h  1
 322 -2.6331767e-01 3.09e-05 3.09e-04  -7.5 1.17e+00    -  1.00e+00 1.00e+00h  1
 323 -2.6331770e-01 1.62e-06 1.61e-05  -7.5 2.60e-01    -  1.00e+00 1.00e+00h  1
 324 -2.6331770e-01 4.88e-09 4.83e-08  -7.5 1.42e-02    -  1.00e+00 1.00e+00h  1
 325 -2.6332286e-01 1.60e-02 5.98e+00  -9.0 2.64e+02    -  8.10e-01 1.59e-01h  1
 326 -2.6332427e-01 3.27e-02 5.64e+00  -9.0 2.46e+02    -  7.59e-01 2.11e-01h  1
 327 -2.6332685e-01 2.46e-01 7.36e-01  -9.0 1.94e+02    -  1.00e+00 8.76e-01h  1
 328 -2.6332629e-01 1.80e-02 8.20e-04  -9.0 2.12e+01    -  1.00e+00 1.00e+00h  1
 329 -2.6332627e-01 1.93e-05 5.12e-08  -9.0 3.99e-01    -  1.00e+00 1.00e+00h  1
iter    objective    inf_pr   inf_du lg(mu)  ||d||  lg(rg) alpha_du alpha_pr  ls
 330 -2.6332627e-01 8.23e-10 6.70e-13  -9.0 2.60e-03    -  1.00e+00 1.00e+00h  1

Number of Iterations....: 330

                                   (scaled)                 (unscaled)
Objective...............:  -2.6332627350413806e-01   -2.6332627350413806e-01
Dual infeasibility......:   6.6994847169876692e-13    6.6994847169876692e-13
Constraint violation....:   8.2294859815590371e-10    8.2294859815590371e-10
Complementarity.........:   9.0955637996802400e-10    9.0955637996802400e-10
Overall NLP error.......:   9.0955637996802400e-10    9.0955637996802400e-10


Number of objective function evaluations             = 1221
Number of objective gradient evaluations             = 331
Number of equality constraint evaluations            = 1221
Number of inequality constraint evaluations          = 1222
Number of equality constraint Jacobian evaluations   = 334
Number of inequality constraint Jacobian evaluations = 334
Number of Lagrangian Hessian evaluations             = 330
Total CPU secs in IPOPT (w/o function evaluations)   =    439.411
Total CPU secs in NLP function evaluations           =      9.893

EXIT: Optimal Solution Found.
